624,388
966,314
977,452
804,575
417,42
1028,229
613,539
450,860
542,833
300,25
207,481
874,140
893,194
857,648
977,452
751,503
909,480
792,64
1006,457
672,434
441,528
776,593
681,556
795,369
254,545
609,458
921,528
734,433
857,648
858,434
826,511
850,575
1081,202
998,-30
